5 5
2 76 0 78 4 50 1 12 3 56
2 15 1 83 4 92 0 40 3 41
3 69 4 69 1 6 2 87 0 67
0 33 3 43 2 21 1 84 4 65
1 17 4 93 0 8 3 64 2 90
-1
0 3 5
0 3 5
0 2 5
0 1 3 4 5
0 1 2 5
-2
298 380
244 360
200 414
40 105 274 275
19 147 354

408 6
15 1 22 8 14
20 6 12 18 3
5 0 17 13 24
10 16 23 9 4
21 11 7 2 19
